50
    1   299   345
    2   296   193
    3   429   467
    4    65   100
    5   123   141
    6   202   291
    7   499   170
    8   401   281
    9   196    46
   10   404    59
   11   204   357
   12   220   100
   13   408   493
   14   327   161
   15   148   206
   16   117   254
   17   111   310
   18    15   425
   19   320   258
   20   179   407
   21   291   114
   22   104   313
   23   301   401
   24   393   496
   25   246   350
   26    44   121
   27   473   295
   28   321   117
   29    63   439
   30    94   104
   31   386   295
   32   305   141
   33     5    25
   34   112   414
   35   241    45
   36    70   262
   37   150   249
   38   200    18
   39    64   137
   40   397   476
   41   213   416
   42    95    23
   43    39   247
   44   348   259
   45   304   416
   46   168   144
   47   158   395
   48   134   379
   49   478   216
   50   127   157
8352
